certificates/rado_a11_c189_N24.cnf
c Rad2 upper bound instance: x1 + 11*x2 - x3 = 189, interval [1,24]
p cnf 24 104
1 10 18 0
-1 -10 -18 0
1 19 21 0
-1 -19 -21 0
2 11 18 0
-2 -11 -18 0
2 19 22 0
-2 -19 -22 0
1 3 17 0
-1 -3 -17 0
3 12 18 0
-3 -12 -18 0
3 19 23 0
-3 -19 -23 0
2 4 17 0
-2 -4 -17 0
4 13 18 0
-4 -13 -18 0
4 19 24 0
-4 -19 -24 0
3 5 17 0
-3 -5 -17 0
5 14 18 0
-5 -14 -18 0
4 6 17 0
-4 -6 -17 0
6 15 18 0
-6 -15 -18 0
5 7 17 0
-5 -7 -17 0
7 16 18 0
-7 -16 -18 0
6 8 17 0
-6 -8 -17 0
8 17 18 0
-8 -17 -18 0
7 9 17 0
-7 -9 -17 0
9 18 0
-9 -18 0
8 10 17 0
-8 -10 -17 0
10 18 19 0
-10 -18 -19 0
9 11 17 0
-9 -11 -17 0
11 18 20 0
-11 -18 -20 0
10 12 17 0
-10 -12 -17 0
12 18 21 0
-12 -18 -21 0
11 13 17 0
-11 -13 -17 0
13 18 22 0
-13 -18 -22 0
1 14 16 0
-1 -14 -16 0
12 14 17 0
-12 -14 -17 0
14 18 23 0
-14 -18 -23 0
2 15 16 0
-2 -15 -16 0
13 15 17 0
-13 -15 -17 0
15 18 24 0
-15 -18 -24 0
3 16 0
-3 -16 0
14 16 17 0
-14 -16 -17 0
4 16 17 0
-4 -16 -17 0
15 17 0
-15 -17 0
5 16 18 0
-5 -16 -18 0
16 17 18 0
-16 -17 -18 0
6 16 19 0
-6 -16 -19 0
17 19 0
-17 -19 0
7 16 20 0
-7 -16 -20 0
17 18 20 0
-17 -18 -20 0
8 16 21 0
-8 -16 -21 0
17 19 21 0
-17 -19 -21 0
9 16 22 0
-9 -16 -22 0
17 20 22 0
-17 -20 -22 0
10 16 23 0
-10 -16 -23 0
17 21 23 0
-17 -21 -23 0
11 16 24 0
-11 -16 -24 0
17 22 24 0
-17 -22 -24 0
