certificates/rado_a11_c189_N24.drat
-22 -24 0
d -22 -17 -24 0
-19 -23 -24 0
-23 -24 0
d -19 -23 -24 0
19 -24 0
-24 0
23 -19 0
-19 0
17 0
4 0
-15 0
-2 0
-6 0
-16 0
18 0
22 0
0
